w = 26;
n = 22;
measures = [|3, 3,
|3, 4,
|3, 5,
|3, 6,
|3, 7,
|3, 8,
|3, 9,
|3, 10,
|3, 11,
|3, 12,
|3, 14,
|3, 15,
|3, 16,
|3, 17,
|3, 19,
|4, 3,
|4, 4,
|4, 5,
|4, 7,
|4, 8,
|4, 11,
|4, 14,
|];
initial_x = [0, 3, 6, 9, 12, 15, 18, 21, 0, 3, 6, 9, 12, 15, 18, 21, 0, 4, 8, 12, 16, 20];
initial_y = [0, 0, 0, 0, 0, 0, 0, 0, 10, 10, 10, 10, 10, 10, 10, 10, 29, 29, 29, 29, 29, 29];